1 2567 10
2 2200 10
3 2197 10
4 2154 10
6 2149 10
7 2113 10
9 2079 10
12 2056 10
37 2027 10
81 1995 10
154 1993 10
157 1983 10
299 1979 10
354 1972 10



1 2617 10
2 2291 10
3 2190 10
4 2102 10
7 2079 10
12 2066 10
29 2061 10
42 2051 10
50 2035 10
124 2004 10
153 1995 10
211 1979 10



1 2630 10
2 2200 10
4 2131 10
10 2096 10
18 2052 10
20 2033 10
24 2010 10
83 1990 10
437 1986 10



1 2727 11
2 2274 10
3 2116 10
8 2106 10
10 2071 10
12 2063 10
15 2041 10
40 2036 10
95 2029 10
97 1998 10
315 1965 10



1 2642 10
2 2153 10
5 2127 10
9 2114 10
14 2095 10
15 2059 10
29 2038 10
31 2019 10
166 1999 10
171 1979 10
271 1972 10



